instances/sko/sko-56.txt
56	60
5	44	29	7	52	36	51	32	14	28	23	49	11	30	3	42	9	33	50	56	8	24	55	38	22	53	54	25	16	21	6	19	2	x	x	x	x	26	43	45	46	4	15	31	12	27	17	20	39	34	37	48	1	47	18	35	10	40	13	41
52703
0 1 0 4 0 3 5 2 4 0 0 1 0 0 1 5 2 2 0 5 4 0 0 0 0 1 5 10 5 1 0 5 2 0 0 5 10 0 4 5 2 1 2 1 5 2 5 10 5 10 0 2 1 0 1 1 
1 0 0 5 0 10 0 5 10 5 5 10 0 0 1 2 0 5 0 0 2 0 2 1 1 2 10 5 0 10 1 0 3 0 0 1 2 5 2 1 0 1 1 1 5 6 3 2 0 0 0 0 0 0 0 5 
0 0 0 1 5 0 0 0 2 0 0 6 1 0 1 1 1 0 2 0 2 1 1 2 1 3 2 5 0 10 2 10 0 0 0 0 0 5 1 0 3 5 0 5 0 5 5 0 10 0 2 5 0 0 10 2 
4 5 1 0 5 4 10 4 3 5 0 5 0 0 10 5 0 2 2 10 2 1 2 0 10 0 1 0 6 2 0 5 1 5 2 5 1 0 1 0 2 2 0 0 4 10 0 5 0 0 0 2 10 1 10 5 
0 0 5 5 0 1 1 1 2 0 10 5 2 5 5 2 0 5 5 10 0 1 2 1 2 2 5 6 10 2 5 10 10 10 1 2 2 2 2 5 4 0 0 5 5 2 5 10 0 5 5 5 0 2 3 10 
3 10 0 4 1 0 1 1 0 0 2 2 0 0 0 0 1 0 5 10 5 10 1 10 2 10 2 5 5 0 2 2 1 0 1 5 5 10 0 2 1 2 1 1 10 10 0 0 5 0 0 1 2 5 10 1 
5 0 0 10 1 1 0 6 2 2 10 2 10 2 4 6 0 0 1 4 4 2 5 5 2 1 0 0 10 2 6 2 2 6 0 5 4 2 0 2 2 0 1 5 2 0 2 0 1 0 2 10 0 0 0 0 
2 5 0 4 1 1 6 0 5 0 10 5 0 0 2 4 0 0 5 5 2 5 2 5 5 0 0 2 2 5 1 0 0 0 0 5 5 0 1 1 3 0 1 5 2 3 2 5 0 10 0 4 5 5 5 10 
4 10 2 3 2 0 2 5 0 4 0 5 0 5 0 2 0 2 1 2 0 0 5 10 10 1 5 2 1 10 1 0 10 1 2 5 5 4 3 10 1 10 1 5 0 1 0 0 0 10 6 5 0 0 2 5 
0 5 0 5 0 0 2 0 4 0 0 2 5 0 5 0 1 0 0 10 1 3 0 0 0 2 3 0 3 2 0 0 5 3 5 10 0 0 5 10 0 2 0 5 2 2 2 1 6 10 5 6 2 2 1 0 
0 5 0 0 10 2 10 10 0 0 0 0 1 5 0 0 0 5 1 1 10 10 4 0 0 2 5 0 4 10 0 5 0 0 1 5 10 0 0 2 1 1 2 5 2 1 0 1 10 5 1 0 2 1 4 5 
1 10 6 5 5 2 2 5 5 2 0 0 10 10 3 0 1 5 1 5 2 1 0 0 1 0 10 3 0 1 5 1 5 2 2 0 6 1 5 0 5 5 0 0 5 3 1 10 0 5 2 1 5 0 5 5 
0 0 1 0 2 0 10 0 0 5 1 10 0 1 0 0 2 10 1 1 5 0 2 5 5 0 5 1 2 4 0 2 2 6 5 5 5 5 0 10 2 5 0 10 0 1 0 4 0 0 2 0 1 0 5 10 
0 0 0 0 5 0 2 0 5 0 5 10 1 0 1 2 0 2 1 1 2 2 2 10 4 2 4 10 2 0 4 0 2 0 5 10 3 1 0 2 10 5 0 5 0 2 5 2 10 0 1 5 10 5 5 0 
1 1 1 10 5 0 4 2 0 5 0 3 0 1 0 0 10 10 0 0 2 5 0 2 5 6 0 5 2 0 5 2 0 0 2 2 2 1 0 5 1 4 0 0 0 10 0 0 2 1 0 0 0 5 1 1 
5 2 1 5 2 0 6 4 2 0 0 0 0 2 0 0 0 0 0 5 10 2 2 2 5 4 10 1 0 0 2 3 4 2 0 1 0 1 0 0 0 1 2 5 0 4 5 2 2 5 2 1 3 1 5 5 
2 0 1 0 0 1 0 0 0 1 0 1 2 0 10 0 0 1 5 10 1 5 10 6 0 5 10 5 0 5 5 0 4 0 1 3 1 2 5 2 1 3 1 1 5 6 1 10 2 0 10 0 1 2 0 0 
2 5 0 2 5 0 0 0 2 0 5 5 10 2 10 0 1 0 6 0 0 0 10 2 2 4 0 0 0 3 5 6 3 0 10 6 5 0 5 5 1 2 3 10 1 0 10 5 5 0 1 1 1 0 2 2 
0 0 2 2 5 5 1 5 1 0 1 1 1 1 0 0 5 6 0 2 0 5 0 4 1 2 5 0 0 0 1 0 5 5 10 0 0 0 2 1 0 2 0 1 1 0 5 0 6 1 2 2 2 10 5 1 
5 0 0 10 10 10 4 5 2 10 1 5 1 1 0 5 10 0 2 0 1 2 0 0 0 10 10 0 10 5 0 10 0 5 5 2 4 0 1 2 0 0 0 0 4 0 5 5 0 5 0 5 5 0 1 0 
4 2 2 2 0 5 4 2 0 1 10 2 5 2 2 10 1 0 0 1 0 0 2 3 10 5 0 5 0 1 5 0 0 1 0 2 5 0 0 0 0 1 0 1 3 5 0 0 1 0 2 0 4 3 2 5 
0 0 1 1 1 10 2 5 0 3 10 1 0 2 5 2 5 0 5 2 0 0 10 2 4 0 5 5 2 5 5 5 5 5 0 0 0 4 0 0 5 0 5 0 10 0 0 0 5 5 1 10 10 0 2 2 
0 2 1 2 2 1 5 2 5 0 4 0 2 2 0 2 10 10 0 0 2 10 0 10 2 5 1 6 10 10 0 1 5 2 5 0 2 10 0 5 1 2 0 0 2 0 1 5 0 1 10 5 0 1 4 2 
0 1 2 0 1 10 5 5 10 0 0 0 5 10 2 2 6 2 4 0 3 2 10 0 5 10 2 10 2 2 1 0 5 0 0 3 0 5 0 0 0 2 2 2 2 2 0 2 1 10 0 2 5 10 10 5 
0 1 1 10 2 2 2 5 10 0 0 1 5 4 5 5 0 2 1 0 10 4 2 5 0 0 0 0 1 0 5 4 2 5 0 2 2 2 2 0 0 5 0 5 5 5 0 2 0 5 0 3 1 10 0 1 
1 2 3 0 2 10 1 0 1 2 2 0 0 2 6 4 5 4 2 10 5 0 5 10 0 0 5 5 5 1 0 1 2 4 0 2 2 2 5 0 2 0 10 0 0 5 0 0 0 2 2 1 3 2 2 2 
5 10 2 1 5 2 0 0 5 3 5 10 5 4 0 10 10 0 5 10 0 5 1 2 0 5 0 0 3 1 1 5 2 1 0 5 5 0 6 0 6 0 5 5 10 1 6 0 10 2 0 5 10 0 2 0 
10 5 5 0 6 5 0 2 2 0 0 3 1 10 5 1 5 0 0 0 5 5 6 10 0 5 0 0 5 5 0 10 0 1 0 2 5 0 0 6 5 1 2 5 0 1 10 0 5 5 0 0 0 0 2 5 
5 0 0 6 10 5 10 2 1 3 4 0 2 2 2 0 0 0 0 10 0 2 10 2 1 5 3 5 0 10 0 0 10 0 10 10 10 5 3 0 4 1 3 10 0 0 10 5 1 1 5 5 3 2 3 1 
1 10 10 2 2 0 2 5 10 2 10 1 4 0 0 0 5 3 0 5 1 5 10 2 0 1 1 5 10 0 0 10 5 5 0 2 4 0 1 0 0 10 0 0 0 0 0 0 6 0 2 3 0 1 1 5 
0 1 2 0 5 2 6 1 1 0 0 5 0 4 5 2 5 5 1 0 5 5 0 1 5 0 1 0 0 0 0 1 2 3 2 5 5 0 0 2 2 5 10 10 10 0 5 0 0 3 0 0 1 1 0 0 
5 0 10 5 10 2 2 0 0 0 5 1 2 0 2 3 0 6 0 10 0 5 1 0 4 1 5 10 0 10 1 0 4 2 5 5 0 2 2 0 0 2 2 2 1 5 0 5 0 5 1 0 4 1 5 0 
2 3 0 1 10 1 2 0 10 5 0 5 2 2 0 4 4 3 5 0 0 5 5 5 2 2 2 0 10 5 2 4 0 0 1 1 1 5 2 2 0 5 10 0 0 2 5 6 5 5 1 1 5 10 1 2 
0 0 0 5 10 0 6 0 1 3 0 2 6 0 0 2 0 0 5 5 1 5 2 0 5 4 1 1 0 5 3 2 0 0 5 0 10 0 5 0 5 3 2 3 0 10 5 10 0 6 2 0 6 1 4 0 
0 0 0 2 1 1 0 0 2 5 1 2 5 5 2 0 1 10 10 5 0 0 5 0 0 0 0 0 10 0 2 5 1 5 0 10 0 2 0 5 0 1 4 4 6 0 5 2 0 0 1 2 1 1 5 4 
5 1 0 5 2 5 5 5 5 10 5 0 5 10 2 1 3 6 0 2 2 0 0 3 2 2 5 2 10 2 5 5 1 0 10 0 1 5 0 0 1 3 2 5 4 0 2 0 1 1 10 1 10 5 0 5 
10 2 0 1 2 5 4 5 5 0 10 6 5 3 2 0 1 5 0 4 5 0 2 0 2 2 5 5 10 4 5 0 1 10 0 1 0 5 3 0 0 3 1 0 5 0 5 0 0 2 5 5 5 2 2 1 
0 5 5 0 2 10 2 0 4 0 0 1 5 1 1 1 2 0 0 0 0 4 10 5 2 2 0 0 5 0 0 2 5 0 2 5 5 0 2 0 0 0 0 1 4 0 1 0 0 3 1 0 10 3 5 1 
4 2 1 1 2 0 0 1 3 5 0 5 0 0 0 0 5 5 2 1 0 0 0 0 2 5 6 0 3 1 0 2 2 5 0 0 3 2 0 5 3 0 0 0 2 2 2 5 2 2 0 4 0 0 5 5 
5 1 0 0 5 2 2 1 10 10 2 0 10 2 5 0 2 5 1 2 0 0 5 0 0 0 0 6 0 0 2 0 2 0 5 0 0 0 5 0 5 0 5 5 2 2 0 2 5 2 2 10 5 2 0 0 
2 0 3 2 4 1 2 3 1 0 1 5 2 10 1 0 1 1 0 0 0 5 1 0 0 2 6 5 4 0 2 0 0 5 0 1 0 0 3 5 0 5 2 5 2 5 5 5 2 5 10 0 0 3 1 0 
1 1 5 2 0 2 0 0 10 2 1 5 5 5 4 1 3 2 2 0 1 0 2 2 5 0 0 1 1 10 5 2 5 3 1 3 3 0 0 0 5 0 0 5 0 0 2 2 6 2 2 2 5 2 5 10 
2 1 0 0 0 1 1 1 1 0 2 0 0 0 0 2 1 3 0 0 0 5 0 2 0 10 5 2 3 0 10 2 10 2 4 2 1 0 0 5 2 0 0 0 10 5 4 0 1 2 1 0 0 2 10 3 
1 1 5 0 5 1 5 5 5 5 5 0 10 5 0 5 1 10 1 0 1 0 0 2 5 0 5 5 10 0 10 2 0 3 4 5 0 1 0 5 5 5 0 0 0 5 2 1 0 0 0 10 0 0 2 2 
5 5 0 4 5 10 2 2 0 2 2 5 0 0 0 0 5 1 1 4 3 10 2 2 5 0 10 0 0 0 10 1 0 0 6 4 5 4 2 2 2 0 10 0 0 10 0 2 0 3 1 0 5 3 0 10 
2 6 5 10 2 10 0 3 1 2 1 3 1 2 10 4 6 0 0 0 5 0 0 2 5 5 1 1 0 0 0 5 2 10 0 0 0 0 2 2 5 0 5 5 10 0 5 2 1 5 6 0 0 5 1 2 
5 3 5 0 5 0 2 2 0 2 0 1 0 5 0 5 1 10 5 5 0 0 1 0 0 0 6 10 10 0 5 0 5 5 5 2 5 1 2 0 5 2 4 2 0 5 0 2 3 2 0 2 0 0 1 1 
10 2 0 5 10 0 0 5 0 1 1 10 4 2 0 2 10 5 0 5 0 0 5 2 2 0 0 0 5 0 0 5 6 10 2 0 0 0 5 2 5 2 0 1 2 2 2 0 0 2 2 5 0 5 0 0 
5 0 10 0 0 5 1 0 0 6 10 0 0 10 2 2 2 5 6 0 1 5 0 1 0 0 10 5 1 6 0 0 5 0 0 1 0 0 2 5 2 6 1 0 0 1 3 0 0 0 5 0 4 0 0 5 
10 0 0 0 5 0 0 10 10 10 5 5 0 0 1 5 0 0 1 5 0 5 1 10 5 2 2 5 1 0 3 5 5 6 0 1 2 3 2 2 5 2 2 0 3 5 2 2 0 0 6 5 6 0 5 3 
0 0 2 0 5 0 2 0 6 5 1 2 2 1 0 2 10 1 2 0 2 1 10 0 0 2 0 0 5 2 0 1 1 2 1 10 5 1 0 2 10 2 1 0 1 6 0 2 5 6 0 5 2 4 2 2 
2 0 5 2 5 1 10 4 5 6 0 1 0 5 0 1 0 1 2 5 0 10 5 2 3 1 5 0 5 3 0 0 1 0 2 1 5 0 4 10 0 2 0 10 0 0 2 5 0 5 5 0 2 0 5 5 
1 0 0 10 0 2 0 5 0 2 2 5 1 10 0 3 1 1 2 5 4 10 0 5 1 3 10 0 3 0 1 4 5 6 1 10 5 10 0 5 0 5 0 0 5 0 0 0 4 6 2 2 0 1 1 0 
0 0 0 1 2 5 0 5 0 2 1 0 0 5 5 1 2 0 10 0 3 0 1 10 10 2 0 0 2 1 1 1 10 1 1 5 2 3 0 2 3 2 2 0 3 5 0 5 0 0 4 0 1 0 1 5 
1 0 10 10 3 10 0 5 2 1 4 5 5 5 1 5 0 2 5 1 2 2 4 10 0 2 2 2 3 1 0 5 1 4 5 0 2 5 5 0 1 5 10 2 0 1 1 0 0 5 2 5 1 1 0 5 
1 5 2 5 10 1 0 10 5 0 5 5 10 0 1 5 0 2 1 0 5 2 2 5 1 2 0 5 1 5 0 0 2 0 4 5 1 1 5 0 0 10 3 2 10 2 1 0 5 3 2 5 0 5 5 0 
