src/LKH/IO/sko-56.tour
NAME : sko-56.-551.tour
COMMENT : Length = -551
COMMENT : Found by LKH [Keld Helsgaun] Sun Apr 13 17:05:01 2025
TYPE : TOUR
DIMENSION : 56
TOUR_SECTION
1
37
34
46
45
22
53
4
20
26
43
31
44
52
40
13
7
11
8
56
5
33
29
35
19
54
25
21
16
27
39
10
36
51
41
14
49
3
32
28
47
18
15
17
23
38
6
55
24
50
9
42
30
2
12
48
-1
EOF
